20	5
0	4	2	1	3	4
1	2	13	20
2	3	5	19	15
3	1	20
4	2	11	7
5	1	17
6	1	16
7	1	14
8	2	18	5
9	1	7
10	1	6
11	3	5	19	15
12	1	8
13	1	9
14	1	10
15	2	18	17
16	2	12	15
17	1	21
18	1	21
19	1	21
20	1	21
21	0
0	0	0	0	0	0	0
1	6	2	2	0	4	1
2	8	1	4	2	2	0
3	3	5	5	4	4	2
4	1	4	3	2	0	3
5	10	0	3	2	0	2
6	8	0	4	1	4	0
7	9	2	4	3	2	2
8	5	4	3	4	0	4
9	3	0	5	1	5	5
10	4	0	1	5	2	1
11	9	2	1	5	1	3
12	7	1	0	0	0	2
13	10	4	3	1	2	4
14	10	5	0	0	3	1
15	3	1	2	4	5	4
16	3	4	5	5	3	2
17	8	1	0	0	0	0
18	1	0	5	0	0	1
19	6	2	0	1	0	3
20	8	0	2	1	3	4
21	0	0	0	0	0	0
5	5	5	5	5
